# Objective value = 1.0344199379316957e+05
e[1] 991.2117934
e[2] 991.0402734
e[3] 9.8932507339999950e+02
e[4] 9.8760987340000020e+02
e[5] 9.8589467339971259e+02
e[6] 9.8417947339950285e+02
e[7] 9.8272369817666913e+02
e[8] 9.8126792295483358e+02
e[9] 9.7981214773300678e+02
e[10] 9.7964062773300725e+02
e[11] 9.7946910773273669e+02
e[12] 9.7929758773247613e+02
e[13] 9.7912606773222512e+02
e[14] 9.7895454773198367e+02
e[15] 979.126067731049
e[16] 9.7929758773168726e+02
e[17] 9.7946910773670709e+02
e[18] 9.8028956295486307e+02
e[19] 9.8111001817715351e+02
e[20] 9.8193047339946486e+02
e[21] 9.8364567339970642e+02
e[22] 9.8536087339999972e+02
e[23] 9.8707607339999993e+02
e[24] 988.7912734
e[25] 988.9627934
e[26] 989.1343134
pi[1] 0
pi[2] 1
pi[3] 0
pi[4] 0
pi[5] 0
pi[6] 1
pi[7] 0
pi[8] 0
pi[9] 1
pi[10] 0
pi[11] 0
pi[12] 0
pi[13] 0
pi[14] 1
pi[15] 0
pi[16] 0
pi[17] 1
pi[18] 0
pi[19] 0
pi[20] 1
pi[21] 0
pi[22] 0
pi[23] 0
pi[24] 1
pi[25] 0
e_bar 9.7895454773198367e+02
B_minus_s[0] 0
B_minus_s[1] 0
B_minus_s[2] 1
B_minus_s[3] 1
B_minus_s[4] 1
B_minus_s[5] 1
B_minus_s[6] 1
B_minus_s[7] 1
B_minus_s[8] 1
B_minus_s[9] 1
B_minus_s[10] 1
B_minus_s[11] 1
B_minus_s[12] 1
B_minus_s[13] 1
B_minus_s[14] 0
B_minus_s[15] 0
B_minus_s[16] 0
B_minus_s[17] 0
B_minus_s[18] 0
B_minus_s[19] 0
B_minus_s[20] 0
B_minus_s[21] 0
B_minus_s[22] 0
B_minus_s[23] 0
B_minus_s[24] 0
B_minus_s[25] 0
B_add_s[0] 0
B_add_s[1] 0
B_add_s[2] 0
B_add_s[3] 0
B_add_s[4] 0
B_add_s[5] 0
B_add_s[6] 0
B_add_s[7] 0
B_add_s[8] 0
B_add_s[9] 0
B_add_s[10] 0
B_add_s[11] 0
B_add_s[12] 0
B_add_s[13] 0
B_add_s[14] 1
B_add_s[15] 1
B_add_s[16] 1
B_add_s[17] 1
B_add_s[18] 1
B_add_s[19] 1
B_add_s[20] 1
B_add_s[21] 1
B_add_s[22] 1
B_add_s[23] 1
B_add_s[24] 1
B_add_s[25] 0
g_s[0] 0.17152
g_s[1] 0.17152
g_s[2] 1.71520000000055
g_s[3] 1.7151999948538617e+00
g_s[4] 1.7152000002873475e+00
g_s[5] 1.7152000002097338e+00
g_s[6] 1.4557752228337222e+00
g_s[7] 1.4557752218355517e+00
g_s[8] 1.4557752218267979e+00
g_s[9] 0.17152
g_s[10] 1.7152000027056147e-01
g_s[11] 1.7152000026055703e-01
g_s[12] 1.7152000025100733e-01
g_s[13] 1.7152000024145764e-01
g_s[14] 1.7152000093460629e-01
g_s[15] 1.7152000000000012e-01
g_s[16] 1.7152000565805370e-01
g_s[17] 8.2045522245812208e-01
g_s[18] 0.820455222290434
g_s[19] 8.2045522231135237e-01
g_s[20] 1.7152000002415662e+00
g_s[21] 1.7152000002932937e+00
g_s[22] 1.7152000000002090e+00
g_s[23] 1.7152000000000953e+00
g_s[24] 0.17152
g_s[25] 0.17152
eth_minus_s[0] 0
eth_minus_s[1] 0
eth_minus_s[2] 0
eth_minus_s[3] 0
eth_minus_s[4] 0
eth_minus_s[5] 0
eth_minus_s[6] 0
eth_minus_s[7] 0
eth_minus_s[8] 0
eth_minus_s[9] 0
eth_minus_s[10] 0
eth_minus_s[11] 0
eth_minus_s[12] 0
eth_minus_s[13] 0
eth_minus_s[14] 0
eth_minus_s[15] 0
eth_minus_s[16] 0
eth_minus_s[17] 0
eth_minus_s[18] 0
eth_minus_s[19] 0
eth_minus_s[20] 0
eth_minus_s[21] 0
eth_minus_s[22] 0
eth_minus_s[23] 0
eth_minus_s[24] 0
eth_minus_s[25] 0
eth_add_s[0] 0
eth_add_s[1] 0
eth_add_s[2] 0
eth_add_s[3] 0
eth_add_s[4] 0
eth_add_s[5] 0
eth_add_s[6] 0
eth_add_s[7] 0
eth_add_s[8] 0
eth_add_s[9] 0
eth_add_s[10] 0
eth_add_s[11] 0
eth_add_s[12] 0
eth_add_s[13] 0
eth_add_s[14] 1.7152000000000012e-01
eth_add_s[15] 1.7152000000000012e-01
eth_add_s[16] 1.7152000565805370e-01
eth_add_s[17] 8.2045522030705342e-01
eth_add_s[18] 0.820455222290434
eth_add_s[19] 8.2045522231135237e-01
eth_add_s[20] 1.7152000002415662e+00
eth_add_s[21] 1.7152000002932937e+00
eth_add_s[22] 1.7152000000002090e+00
eth_add_s[23] 1.7152000000000953e+00
eth_add_s[24] 1.7151999999999340e-01
eth_add_s[25] 0
L2R_v[0] 0.1
L2R_v[1] 1.3587513128432375e+01
L2R_v[2] 1.5447956027604459e+01
L2R_v[3] 16.316364485211
L2R_v[4] 1.7133603297616791e+01
L2R_v[5] 1.7906752828262128e+01
L2R_v[6] 1.8512257369487450e+01
L2R_v[7] 1.9093408617030079e+01
L2R_v[8] 1.9652416423523384e+01
L2R_v[9] 1.9594300741845011e+01
L2R_v[10] 1.9536533415069638e+01
L2R_v[11] 1.9479112913927292e+01
L2R_v[12] 1.9422037713169431e+01
L2R_v[13] 1.9365306291544492e+01
L2R_v[14] 1.9143961894287408e+01
L2R_v[15] 1.8922040428147223e+01
L2R_v[16] 1.8699503771795683e+01
L2R_v[17] 1.8148689435536177e+01
L2R_v[18] 1.7585788241829793e+01
L2R_v[19] 1.7009557022734775e+01
L2R_v[20] 1.5906740397570115e+01
L2R_v[21] 1.4732599291766054e+01
L2R_v[22] 1.3468411651875194e+01
L2R_v[23] 1.2061204592478477e+01
L2R_v[24] 1.0201549190428333e+01
L2R_v[25] 0.1
L2R_v2[0] 1.0000000000000002e-02
L2R_v2[1] 1.8462051302128526e+02
L2R_v2[2] 2.3863934543080092e+02
L2R_v2[3] 2.6622375001425485e+02
L2R_v2[4] 2.9356036196010496e+02
L2R_v2[5] 3.2065179685247369e+02
L2R_v2[6] 3.4270367291414237e+02
L2R_v2[7] 3.6455825261687846e+02
L2R_v2[8] 3.8621747128357129e+02
L2R_v2[9] 3.8393662156186792e+02
L2R_v2[10] 3.8167613787813252e+02
L2R_v2[11] 379.435839913529
L2R_v2[12] 3.7721554893177563e+02
L2R_v2[13] 3.7501508776533251e+02
L2R_v2[14] 3.6649127700992813e+02
L2R_v2[15] 3.5804361396443778e+02
L2R_v2[16] 3.4967144131140066e+02
L2R_v2[17] 3.2937492822754211e+02
L2R_v2[18] 3.0925994808647897e+02
L2R_v2[19] 2.8932503010966570e+02
L2R_v2[20] 253.024390075689
L2R_v2[21] 2.1704948189174550e+02
L2R_v2[22] 1.8139811242436744e+02
L2R_v2[23] 1.4547265622162391e+02
L2R_v2[24] 1.0407160588472897e+02
L2R_v2[25] 1.0000000000000002e-02
L2R_E_hat[0] 5.0000000000000010e-03
L2R_E_hat[1] 9.2310256510642631e+01
L2R_E_hat[2] 1.1931967271540046e+02
L2R_E_hat[3] 1.3311187500712742e+02
L2R_E_hat[4] 1.4678018098005248e+02
L2R_E_hat[5] 1.6032589842623685e+02
L2R_E_hat[6] 1.7135183645707119e+02
L2R_E_hat[7] 1.8227912630843923e+02
L2R_E_hat[8] 1.9310873564178564e+02
L2R_E_hat[9] 1.9196831078093396e+02
L2R_E_hat[10] 1.9083806893906626e+02
L2R_E_hat[11] 1.8971791995676449e+02
L2R_E_hat[12] 1.8860777446588781e+02
L2R_E_hat[13] 1.8750754388266625e+02
L2R_E_hat[14] 1.8324563850496406e+02
L2R_E_hat[15] 1.7902180698221889e+02
L2R_E_hat[16] 1.7483572065570033e+02
L2R_E_hat[17] 1.6468746411377106e+02
L2R_E_hat[18] 1.5462997404323949e+02
L2R_E_hat[19] 1.4466251505483285e+02
L2R_E_hat[20] 1.2651219503784451e+02
L2R_E_hat[21] 1.0852474094587275e+02
L2R_E_hat[22] 9.0699056212183720e+01
L2R_E_hat[23] 7.2736328110811954e+01
L2R_E_hat[24] 5.2035802942364484e+01
L2R_E_hat[25] 5.0000000000000010e-03
L2R_a[1] 1.0763206216259635e+00
L2R_a[2] 3.1494188671592460e-01
L2R_a[3] 1.6082325433450073e-01
L2R_a[4] 1.5937856778130444e-01
L2R_a[5] 1.5794913066912275e-01
L2R_a[6] 1.2856737442669997e-01
L2R_a[7] 1.2741709248329669e-01
L2R_a[8] 1.2627809390561651e-01
L2R_a[9] -1.3297864515540825e-02
L2R_a[10] -1.3179125954626780e-02
L2R_a[11] -1.3061438692897331e-02
L2R_a[12] -1.2944793503705476e-02
L2R_a[13] -1.2829181240935794e-02
L2R_a[14] -4.9695725019861081e-02
L2R_a[15] -4.9251766823067422e-02
L2R_a[16] -4.8811640934230738e-02
L2R_a[17] -1.1833321527436191e-01
L2R_a[18] -1.1727483757616119e-01
L2R_a[19] -1.1622503484615931e-01
L2R_a[20] -2.1164085840704705e-01
L2R_a[21] -2.0974176879631234e-01
L2R_a[22] -2.0785546564469470e-01
L2R_a[23] -2.0945345267457760e-01
L2R_a[24] -0.241377392355964
L2R_a[25] -6.0670245968242165e-01
L2R_f[1] 200
L2R_f[2] 2.8303183882888305e+01
L2R_f[3] 0
L2R_f[4] 0
L2R_f[5] 0
L2R_f[6] 0
L2R_f[7] 0
L2R_f[8] 0
L2R_f[9] 0
L2R_f[10] 0
L2R_f[11] 0
L2R_f[12] 0
L2R_f[13] 0
L2R_f[14] 0
L2R_f[15] 0
L2R_f[16] 0
L2R_f[17] 0
L2R_f[18] 0
L2R_f[19] 0
L2R_f[20] 0
L2R_f[21] 0
L2R_f[22] 0
L2R_f[23] 0
L2R_f[24] 0
L2R_f[25] 0
L2R_b[1] 0
L2R_b[2] 0
L2R_b[3] 0
L2R_b[4] 0
L2R_b[5] 0
L2R_b[6] 0
L2R_b[7] 0
L2R_b[8] 0
L2R_b[9] 0
L2R_b[10] 0
L2R_b[11] 0
L2R_b[12] 0
L2R_b[13] 0
L2R_b[14] 0
L2R_b[15] 0
L2R_b[16] 0
L2R_b[17] 0
L2R_b[18] 7.6692213468732020e-08
L2R_b[19] 0
L2R_b[20] 3.0313636045775645e-08
L2R_b[21] 1.7712475516515175e-08
L2R_b[22] 1.4081955157507767e-08
L2R_b[23] 6.4968793977928385e-01
L2R_b[24] 3.8111661023327486e+01
L2R_b[25] 1.0687144846007227e+02
L2R_f_max[1] 200
L2R_f_max[2] 200
L2R_f_max[3] 200
L2R_f_max[4] 200
L2R_f_max[5] 200
L2R_f_max[6] 200
L2R_f_max[7] 200
L2R_f_max[8] 200
L2R_f_max[9] 200
L2R_f_max[10] 200
L2R_f_max[11] 200
L2R_f_max[12] 200
L2R_f_max[13] 200
L2R_f_max[14] 200
L2R_f_max[15] 200
L2R_f_max[16] 200
L2R_f_max[17] 200
L2R_f_max[18] 200
L2R_f_max[19] 200
L2R_f_max[20] 200
L2R_f_max[21] 200
L2R_f_max[22] 200
L2R_f_max[23] 200
L2R_f_max[24] 200
L2R_f_max[25] 200
L2R_b_max[1] 200
L2R_b_max[2] 200
L2R_b_max[3] 200
L2R_b_max[4] 200
L2R_b_max[5] 200
L2R_b_max[6] 200
L2R_b_max[7] 200
L2R_b_max[8] 200
L2R_b_max[9] 200
L2R_b_max[10] 200
L2R_b_max[11] 200
L2R_b_max[12] 200
L2R_b_max[13] 200
L2R_b_max[14] 200
L2R_b_max[15] 200
L2R_b_max[16] 200
L2R_b_max[17] 200
L2R_b_max[18] 200
L2R_b_max[19] 200
L2R_b_max[20] 200
L2R_b_max[21] 200
L2R_b_max[22] 200
L2R_b_max[23] 200
L2R_b_max[24] 200
L2R_b_max[25] 200
L2R_gamma[1] 1
L2R_gamma[2] 1
L2R_gamma[3] 1
L2R_gamma[4] 1
L2R_gamma[5] 1
L2R_gamma[6] 1
L2R_gamma[7] 1
L2R_gamma[8] 1
L2R_gamma[9] 1
L2R_gamma[10] 1
L2R_gamma[11] 1
L2R_gamma[12] 1
L2R_gamma[13] 1
L2R_gamma[14] 1
L2R_gamma[15] 1
L2R_gamma[16] 1
L2R_gamma[17] 1
L2R_gamma[18] 0
L2R_gamma[19] 0
L2R_gamma[20] 0
L2R_gamma[21] 0
L2R_gamma[22] 0
L2R_gamma[23] 0
L2R_gamma[24] 0
L2R_gamma[25] 0
L2R_t[1] 1.2623354868455499e+01
L2R_t[2] 5.9316104712136459e+00
L2R_t[3] 5.4038081674114382e+00
L2R_t[4] 5.1307207147489624e+00
L2R_t[5] 4.8973116474027
L2R_t[6] 4.7109304928023858e+00
L2R_t[7] 4.5621043476636229e+00
L2R_t[8] 4.4277211782943384e+00
L2R_t[9] 4.3703114166389172e+00
L2R_t[10] 4.3832537051105875e+00
L2R_t[11] 4.39619454372196
L2R_t[12] 4.4091335720270388e+00
L2R_t[13] 4.42207042866669
L2R_t[14] 4.4541398694760668e+00
L2R_t[15] 4.5060111210670728e+00
L2R_t[16] 4.5592493649090153e+00
L2R_t[17] 4.6558140189654
L2R_t[18] 4.8010375964690644e+00
L2R_t[19] 4.9592682834549251e+00
L2R_t[20] 5.2166482947007227e+00
L2R_t[21] 5.6062648164914330e+00
L2R_t[22] 6.0942981209163936e+00
L2R_t[23] 6.7389463225078270e+00
L2R_t[24] 7.7584836184718133e+00
L2R_t[25] 1.6813132672136696e+01
L2R_Psi_t[1] 7.3596985006131321e-02
L2R_Psi_t[2] 6.4733483071356970e-02
L2R_Psi_t[3] 6.1288162623873141e-02
L2R_Psi_t[4] 5.8364839119340158e-02
L2R_Psi_t[5] 5.5844854150312810e-02
L2R_Psi_t[6] 5.4018263685564082e-02
L2R_Psi_t[7] 5.2374095168531878e-02
L2R_Psi_t[8] 5.0884327832735540e-02
L2R_Psi_t[9] 5.1035248115000577e-02
L2R_Psi_t[10] 5.1186153590004009e-02
L2R_Psi_t[11] 5.1337040060228517e-02
L2R_Psi_t[12] 5.1487903317267970e-02
L2R_Psi_t[13] 5.1638739142309965e-02
L2R_Psi_t[14] 5.2235791395844861e-02
L2R_Psi_t[15] 5.2848423181279310e-02
L2R_Psi_t[16] 5.3477354918278222e-02
L2R_Psi_t[17] 5.5100397389683829e-02
L2R_Psi_t[18] 5.6864098796628661e-02
L2R_Psi_t[19] 5.8790478709316869e-02
L2R_Psi_t[20] 6.2866431148443092e-02
L2R_Psi_t[21] 6.7876684907794443e-02
L2R_Psi_t[22] 7.4247804852383692e-02
L2R_Psi_t[23] 8.2910458265803150e-02
L2R_Psi_t[24] 9.8024327612737119e-02
L2R_phi_n[1] 2.3381882358658953e+04
L2R_phi_n[2] 4.4612384494311482e+03
L2R_phi_n[3] 1.3342736215830712e+03
L2R_phi_n[4] 1.2668446209256697e+03
L2R_phi_n[5] 1.0642082589511715e+03
L2R_phi_n[6] 1.0265345628443492e+03
L2R_phi_n[7] 9.9506662914720209e+02
L2R_phi_n[8] 1.0932644884677379e+03
L2R_phi_n[9] 1.0790892386762757e+03
L2R_phi_n[10] 1.0822848654594043e+03
L2R_phi_n[11] 6.9156435282528548e+02
L2R_phi_n[12] 1.0886749560560588e+03
L2R_phi_n[13] 2.7097459268861360e+02
L2R_phi_n[14] 1.0997876220928558e+03
L2R_phi_n[15] 9.7082968528387732e+02
L2R_phi_n[16] 1.1257405839281519e+03
L2R_phi_n[17] 1.1495837083865185e+03
L2R_phi_n[18] 1.1854413818442133e+03
L2R_phi_n[19] 1.2245106872728206e+03
L2R_phi_n[20] 1.2880613073335116e+03
L2R_phi_n[21] 8.1048392556458657e+02
L2R_phi_n[22] 0
L2R_phi_n[23] 0
L2R_phi_n[24] 8.5081069300940726e-07
L2R_phi_n[25] 0
L2R_phi_b[1] 8.1927362575277846e+02
L2R_phi_b[2] 0
L2R_phi_b[3] 0
L2R_phi_b[4] 0
L2R_phi_b[5] 1.3050404414454556e+02
L2R_phi_b[6] 1.2299233628506036e+02
L2R_phi_b[7] 1.1824099991498983e+02
L2R_phi_b[8] 0
L2R_phi_b[9] 0
L2R_phi_b[10] 0
L2R_phi_b[11] 3.5452420328434528e+02
L2R_phi_b[12] 0
L2R_phi_b[13] 7.3880518428557662e+02
L2R_phi_b[14] 0
L2R_phi_b[15] 1.2758908792608217e+02
L2R_phi_b[16] 0
L2R_phi_b[17] 0
L2R_phi_b[18] 0
L2R_phi_b[19] 0
L2R_phi_b[20] 0
L2R_phi_b[21] 5.1640109287885718e+02
L2R_phi_b[22] 1.3542884713147623e+03
L2R_phi_b[23] 1.4975436272239722e+03
L2R_phi_b[24] 1.7241074700057843e+03
L2R_phi_b[25] 3.7362517049192666e+03
L2R_w0[1] 2.0905450000000005e+00
L2R_w0[2] 3.4226909632969917e+00
L2R_w0[3] 3.79204571437073
L2R_w0[4] 3.9798547470477246e+00
L2R_w0[5] 4.1655516650573272e+00
L2R_w0[6] 4.3492228572580487e+00
L2R_w0[7] 4.4984939961629031e+00
L2R_w0[8] 4.6462440464566050e+00
L2R_w0[9] 4.7925072442937431e+00
L2R_w0[10] 4.7771121874222224e+00
L2R_w0[11] 4.7618529236755442e+00
L2R_w0[12] 4.7467282659944257e+00
L2R_w0[13] 4.7317370376456021e+00
L2R_w0[14] 4.7168780721317978e+00
L2R_w0[15] 4.65930412712855
L2R_w0[16] 4.6022194869646889e+00
L2R_w0[17] 4.5456195054877018e+00
L2R_w0[18] 4.4082941899472790e+00
L2R_w0[19] 4.2720303873320447e+00
L2R_w0[20] 4.1368063545356275e+00
L2R_w0[21] 3.8900445913881656e+00
L2R_w0[22] 3.6447011053556526e+00
L2R_w0[23] 3.4005781649467655e+00
L2R_w0[24] 3.1532720704468442e+00
L2R_w0[25] 2.8659406203169362e+00
L2R_wi[1] -3.4593999999997322e+00
L2R_wi[2] -3.4594000000011874e+01
L2R_wi[3] -3.4593999896207137e+01
L2R_wi[4] -3.4594000005795529e+01
L2R_wi[5] -3.4594000004205164e+01
L2R_wi[6] -2.9361641811339133e+01
L2R_wi[7] -2.9361641810877188e+01
L2R_wi[8] -2.9361641810583848e+01
L2R_wi[9] -3.4594000112201755e+00
L2R_wi[10] -3.4594000110421987e+00
L2R_wi[11] -3.4594000108779781e+00
L2R_wi[12] -3.4594000107287357e+00
L2R_wi[13] -3.4594000048732951e+00
L2R_wi[14] 3.4594000151938857e+00
L2R_wi[15] 3.4594000095384487e+00
L2R_wi[16] 3.4594000096658064e+00
L2R_wi[17] 1.6547824136753682e+01
L2R_wi[18] 1.6547824060087798e+01
L2R_wi[19] 1.6547824137487815e+01
L2R_wi[20] 3.4593999971407278e+01
L2R_wi[21] 3.4593999988676096e+01
L2R_wi[22] 3.4593999997174549e+01
L2R_wi[23] 34.5940000000046
L2R_wi[24] 3.4593999999997322e+00
L2R_wi[25] 3.4593999999997322e+00
L2R_wtn[1] 2.9900000000000005e-05
L2R_wtn[2] 0.552015333933643
L2R_wtn[3] 7.1353164283809478e-01
L2R_wtn[4] 0.796009012542622
L2R_wtn[5] 8.7774548226071392e-01
L2R_wtn[6] 9.5874887258889641e-01
L2R_wtn[7] 1.0246839820132858e+00
L2R_wtn[8] 1.0900291753244666e+00
L2R_wtn[9] 1.1547902391378781e+00
L2R_wtn[10] 1.1479704984699852e+00
L2R_wtn[11] 1.1412116522556164e+00
L2R_wtn[12] 1.1345131613414516e+00
L2R_wtn[13] 1.1278744913060093e+00
L2R_wtn[14] 1.1212951124183443e+00
L2R_wtn[15] 1.0958089182596851e+00
L2R_wtn[16] 1.0705504057536690e+00
L2R_wtn[17] 1.0455176095210881e+00
L2R_wtn[18] 0.984831035400351
L2R_wtn[19] 9.2468724477857211e-01
L2R_wtn[20] 8.6508184002790045e-01
L2R_wtn[21] 7.5654292632631015e-01
L2R_wtn[22] 0.648977950856319
L2R_wtn[23] 5.4238035614885871e-01
L2R_wtn[24] 4.3496324210265552e-01
L2R_wtn[25] 3.1117410159533965e-01
L2R_T 1.4583181965372421e+02
L2R_varpi[0] 60
L2R_varpi[1] 5.3497828367041443e+01
L2R_varpi[2] 5.3497828367041578e+01
L2R_varpi[3] 5.3497828367041755e+01
L2R_varpi[4] 5.3497828367042011e+01
L2R_varpi[5] 52.4620819849427
L2R_varpi[6] 5.1485952331884825e+01
L2R_varpi[7] 5.0547531697638540e+01
L2R_varpi[8] 5.0547531697638874e+01
L2R_varpi[9] 50.5475316976392
L2R_varpi[10] 5.0547531697639542e+01
L2R_varpi[11] 4.7733847544589466e+01
L2R_varpi[12] 4.7733847544589750e+01
L2R_varpi[13] 4.1870314335974065e+01
L2R_varpi[14] 4.1870314335974065e+01
L2R_varpi[15] 4.0857702527036906e+01
L2R_varpi[16] 4.0857702527036906e+01
L2R_varpi[17] 4.0857702527036906e+01
L2R_varpi[18] 4.0857702574016429e+01
L2R_varpi[19] 4.0857702576918491e+01
L2R_varpi[20] 4.0857702597382094e+01
L2R_varpi[21] 3.6759281236176875e+01
L2R_varpi[22] 26.0109600438923
L2R_varpi[23] 1.4523673432292409e+01
L2R_varpi[24] 2.4186395451489027e+01
L2R_varpi[25] 60
L2R_kappa_plus[0] 0
L2R_kappa_plus[1] 500
L2R_kappa_plus[2] 500
L2R_kappa_plus[3] 500
L2R_kappa_plus[4] 500
L2R_kappa_plus[5] 500
L2R_kappa_plus[6] 500
L2R_kappa_plus[7] 500
L2R_kappa_plus[8] 500
L2R_kappa_plus[9] 500
L2R_kappa_plus[10] 500
L2R_kappa_plus[11] 500
L2R_kappa_plus[12] 500
L2R_kappa_plus[13] 0
L2R_kappa_plus[14] 500
L2R_kappa_plus[15] 500
L2R_kappa_plus[16] 500
L2R_kappa_plus[17] 500
L2R_kappa_plus[18] 500
L2R_kappa_plus[19] 500
L2R_kappa_plus[20] 500
L2R_kappa_plus[21] 500
L2R_kappa_plus[22] 7.4411505541900178e+00
L2R_kappa_plus[23] 3.7914760013195439e+02
L2R_kappa_plus[24] 4.9061445235561507e+02
L2R_kappa_plus[25] 0
L2R_kappa_minus[0] 500
L2R_kappa_minus[1] 2.8945076479384693e+02
L2R_kappa_minus[2] 500
L2R_kappa_minus[3] 500
L2R_kappa_minus[4] 500
L2R_kappa_minus[5] 500
L2R_kappa_minus[6] 500
L2R_kappa_minus[7] 500
L2R_kappa_minus[8] 500
L2R_kappa_minus[9] 500
L2R_kappa_minus[10] 500
L2R_kappa_minus[11] 2.7123416912973187e+02
L2R_kappa_minus[12] 500
L2R_kappa_minus[13] 500
L2R_kappa_minus[14] 500
L2R_kappa_minus[15] 500
L2R_kappa_minus[16] 500
L2R_kappa_minus[17] 500
L2R_kappa_minus[18] 500
L2R_kappa_minus[19] 500
L2R_kappa_minus[20] 500
L2R_kappa_minus[21] 500
L2R_kappa_minus[22] 2.2222222222222223e+02
L2R_kappa_minus[23] 2.2222222212352642e+02
L2R_kappa_minus[24] 2.2222222222222223e+02
L2R_kappa_minus[25] 0
L2R_xi[1] 0
L2R_xi[2] 0
L2R_xi[3] 0
L2R_xi[4] 0
L2R_xi[5] 0
L2R_xi[6] 0
L2R_xi[7] 0
L2R_xi[8] 0
L2R_xi[9] 0
L2R_xi[10] 0
L2R_xi[11] 0
L2R_xi[12] 0
L2R_xi[13] 0
L2R_xi[14] 0
L2R_xi[15] 0
L2R_xi[16] 0
L2R_xi[17] 0
L2R_xi[18] 5.9194196424341462e-06
L2R_xi[19] 3.6566006471757050e-07
L2R_xi[20] 2.5784135996218552e-06
L2R_xi[21] 1.3669997788383634e-06
L2R_xi[22] 1.0869057196032378e-06
L2R_xi[23] 50.1455141623859
L2R_xi[24] 2.9416104444245134e+03
L2R_xi[25] 8.2487658779422327e+03
R2L_v[0] 0.1
R2L_v[1] 1.0201549190413317e+01
R2L_v[2] 1.2506227010226107e+01
R2L_v[3] 1.3850261325975302e+01
R2L_v[4] 1.5085617713031366e+01
R2L_v[5] 1.6237184192510259e+01
R2L_v[6] 1.7181459769558330e+01
R2L_v[7] 1.8084360916685217e+01
R2L_v[8] 1.8951859593729623e+01
R2L_v[9] 1.9173701432725931e+01
R2L_v[10] 1.9394971193445585e+01
R2L_v[11] 1.9615705166757845e+01
R2L_v[12] 1.9835938137608181e+01
R2L_v[13] 2.0055703477918872e+01
R2L_v[14] 2.0116581787207821e+01
R2L_v[15] 2.0177822053845077e+01
R2L_v[16] 2.0239425847788638e+01
R2L_v[17] 2.0000985337816338e+01
R2L_v[18] 1.9757480926471263e+01
R2L_v[19] 1.9508702330578480e+01
R2L_v[20] 1.8815932796459268e+01
R2L_v[21] 1.8090041153974688e+01
R2L_v[22] 1.7326794598944865e+01
R2L_v[23] 16.5209407393489
R2L_v[24] 1.3587513128432375e+01
R2L_v[25] 0.1
R2L_v2[0] 1.0000000000000002e-02
R2L_v2[1] 1.0407160588442261e+02
R2L_v2[2] 1.5640571403130903e+02
R2L_v2[3] 1.9182973879780712e+02
R2L_v2[4] 2.2757586178372571e+02
R2L_v2[5] 2.6364615050150496e+02
R2L_v2[6] 2.9520255981295122e+02
R2L_v2[7] 3.2704410976493159e+02
R2L_v2[8] 3.5917298206044143e+02
R2L_v2[9] 3.6763082663131627e+02
R2L_v2[10] 3.7616490759458412e+02
R2L_v2[11] 3.8477588918917013e+02
R2L_v2[12] 3.9346444179901840e+02
R2L_v2[13] 4.0223124199420681e+02
R2L_v2[14] 4.0467686280142112e+02
R2L_v2[15] 4.0714450283663678e+02
R2L_v2[16] 4.0963435864813482e+02
R2L_v2[17] 4.0003941448354385e+02
R2L_v2[18] 3.9035805255987577e+02
R2L_v2[19] 3.8058946662311791e+02
R2L_v2[20] 3.5403932700087148e+02
R2L_v2[21] 3.2724958895249790e+02
R2L_v2[22] 3.0021781107402495e+02
R2L_v2[23] 2.7294148291307823e+02
R2L_v2[24] 1.8462051302128526e+02
R2L_v2[25] 1.0000000000000002e-02
R2L_E_hat[0] 5.0000000000000010e-03
R2L_E_hat[1] 3.1250019858173630e+02
R2L_E_hat[2] 5.0000000000000010e-03
R2L_E_hat[3] 3.1250019858173630e+02
R2L_E_hat[4] 3.1250019858173630e+02
R2L_E_hat[5] 3.1250019858173630e+02
R2L_E_hat[6] 3.1250019858174016e+02
R2L_E_hat[7] 3.1250019858173630e+02
R2L_E_hat[8] 3.1250019858173630e+02
R2L_E_hat[9] 3.1250019858173630e+02
R2L_E_hat[10] 3.1250019858173630e+02
R2L_E_hat[11] 3.1250019858173630e+02
R2L_E_hat[12] 3.1250019858173630e+02
R2L_E_hat[13] 3.1250019858173630e+02
R2L_E_hat[14] 3.1250019858173630e+02
R2L_E_hat[15] 3.1250019858173630e+02
R2L_E_hat[16] 3.1250019858173630e+02
R2L_E_hat[17] 3.1250019858173630e+02
R2L_E_hat[18] 3.1250019858173630e+02
R2L_E_hat[19] 3.1250019858173630e+02
R2L_E_hat[20] 3.1250019858173630e+02
R2L_E_hat[21] 3.1250019858173630e+02
R2L_E_hat[22] 4.0376498731296806e+02
R2L_E_hat[23] 3.1250019858173630e+02
R2L_E_hat[24] 3.1250019858173630e+02
R2L_E_hat[25] 3.1250019858173630e+02
R2L_a[1] -6.0670245968063552e-01
R2L_a[2] -3.0511956708772403e-01
R2L_a[3] -2.0652999514049730e-01
R2L_a[4] -2.0840789987126040e-01
R2L_a[5] -2.1029785866242556e-01
R2L_a[6] -1.8398093115349390e-01
R2L_a[7] -1.8564336492526667e-01
R2L_a[8] -1.8731851851394321e-01
R2L_a[9] -4.9311127395499588e-02
R2L_a[10] -4.9755602630999540e-02
R2L_a[11] -5.0203950528143970e-02
R2L_a[12] -0.0506562069137686
R2L_a[13] -5.1112407854416730e-02
R2L_a[14] -1.4258516833113521e-02
R2L_a[15] -1.4386893862039507e-02
R2L_a[16] -1.4516416811446442e-02
R2L_a[17] 5.5940672601386021e-02
R2L_a[18] 0.0564445074840656
R2L_a[19] 5.6953043008145077e-02
R2L_a[20] 1.5479325805880162e-01
R2L_a[21] 1.5619017052456097e-01
R2L_a[22] 1.5760131692206358e-01
R2L_a[23] 1.5902709981894958e-01
R2L_a[24] 5.1493102782062139e-01
R2L_a[25] 1.0763206216259635e+00
R2L_f[1] 0
R2L_f[2] 0
R2L_f[3] 0
R2L_f[4] 0
R2L_f[5] 0
R2L_f[6] 0
R2L_f[7] 0
R2L_f[8] 0
R2L_f[9] 0
R2L_f[10] 0
R2L_f[11] 0
R2L_f[12] 0
R2L_f[13] 0
R2L_f[14] 0
R2L_f[15] 0
R2L_f[16] 0
R2L_f[17] 0
R2L_f[18] 0
R2L_f[19] 0
R2L_f[20] 0
R2L_f[21] 0
R2L_f[22] 0
R2L_f[23] 0
R2L_f[24] 9.6853752292190364e+01
R2L_f[25] 200
R2L_b[1] 1.0687144845974115e+02
R2L_b[2] 1.8794468769947940e+01
R2L_b[3] 1.1244342346117264e-07
R2L_b[4] 1.0184120213807549e-07
R2L_b[5] 1.0139893902305633e-07
R2L_b[6] 1.0133894789987610e-07
R2L_b[7] 0
R2L_b[8] 0
R2L_b[9] 0
R2L_b[10] 0
R2L_b[11] 0
R2L_b[12] 0
R2L_b[13] 0
R2L_b[14] 0
R2L_b[15] 0
R2L_b[16] 0
R2L_b[17] 0
R2L_b[18] 0
R2L_b[19] 0
R2L_b[20] 0
R2L_b[21] 0
R2L_b[22] 0
R2L_b[23] 0
R2L_b[24] 0
R2L_b[25] 0
R2L_f_max[1] 200
R2L_f_max[2] 200
R2L_f_max[3] 200
R2L_f_max[4] 200
R2L_f_max[5] 200
R2L_f_max[6] 200
R2L_f_max[7] 200
R2L_f_max[8] 200
R2L_f_max[9] 200
R2L_f_max[10] 200
R2L_f_max[11] 200
R2L_f_max[12] 200
R2L_f_max[13] 200
R2L_f_max[14] 200
R2L_f_max[15] 200
R2L_f_max[16] 200
R2L_f_max[17] 200
R2L_f_max[18] 200
R2L_f_max[19] 200
R2L_f_max[20] 200
R2L_f_max[21] 200
R2L_f_max[22] 1.7472991793437728e+02
R2L_f_max[23] 200
R2L_f_max[24] 200
R2L_f_max[25] 200
R2L_b_max[1] 200
R2L_b_max[2] 200
R2L_b_max[3] 200
R2L_b_max[4] 200
R2L_b_max[5] 200
R2L_b_max[6] 200
R2L_b_max[7] 200
R2L_b_max[8] 200
R2L_b_max[9] 200
R2L_b_max[10] 200
R2L_b_max[11] 200
R2L_b_max[12] 200
R2L_b_max[13] 200
R2L_b_max[14] 200
R2L_b_max[15] 200
R2L_b_max[16] 200
R2L_b_max[17] 200
R2L_b_max[18] 200
R2L_b_max[19] 200
R2L_b_max[20] 200
R2L_b_max[21] 200
R2L_b_max[22] 1.7472991793437737e+02
R2L_b_max[23] 200
R2L_b_max[24] 200
R2L_b_max[25] 200
R2L_gamma[1] 0
R2L_gamma[2] 0
R2L_gamma[3] 0
R2L_gamma[4] 0
R2L_gamma[5] 0
R2L_gamma[6] 0
R2L_gamma[7] 1
R2L_gamma[8] 1
R2L_gamma[9] 1
R2L_gamma[10] 1
R2L_gamma[11] 1
R2L_gamma[12] 1
R2L_gamma[13] 1
R2L_gamma[14] 1
R2L_gamma[15] 1
R2L_gamma[16] 1
R2L_gamma[17] 1
R2L_gamma[18] 1
R2L_gamma[19] 1
R2L_gamma[20] 1
R2L_gamma[21] 1
R2L_gamma[22] 0
R2L_gamma[23] 0
R2L_gamma[24] 1
R2L_gamma[25] 1
R2L_t[1] 1.6813132672161416e+01
R2L_t[2] 7.63197512804858
R2L_t[3] 6.5246624251705869e+00
R2L_t[4] 5.9384129037612832e+00
R2L_t[5] 5.4832944170952507e+00
R2L_t[6] 5.1365654146720860e+00
R2L_t[7] 4.8668229377804044e+00
R2L_t[8] 4.6336843053029151e+00
R2L_t[9] 4.49897136752563
R2L_t[10] 4.44727894010493
R2L_t[11] 4.3968858686560885e+00
R2L_t[12] 4.34773638862612
R2L_t[13] 4.2997780686450922e+00
R2L_t[14] 4.2696200320621411e+00
R2L_t[15] 4.25668032870752
R2L_t[16] 4.2437426439548771e+00
R2L_t[17] 4.2625315519018132e+00
R2L_t[18] 4.3142115424007539e+00
R2L_t[19] 4.3683106184551681e+00
R2L_t[20] 4.4769131570978518e+00
R2L_t[21] 4.6492846819452671e+00
R2L_t[22] 4.8451447044667511e+00
R2L_t[23] 5.0702735714183547e+00
R2L_t[24] 5.7513325619571125e+00
R2L_t[25] 1.2623354868455499e+01
R2L_Psi_t[1] 9.8024327612881393e-02
R2L_Psi_t[2] 7.9960166977803837e-02
R2L_Psi_t[3] 7.2200803758450560e-02
R2L_Psi_t[4] 6.6288303138967442e-02
R2L_Psi_t[5] 6.1587033080604633e-02
R2L_Psi_t[6] 0.058202272298875
R2L_Psi_t[7] 5.5296396959063542e-02
R2L_Psi_t[8] 5.2765270608635055e-02
R2L_Psi_t[9] 5.2154770611645522e-02
R2L_Psi_t[10] 5.1559756909458264e-02
R2L_Psi_t[11] 5.0979559057334853e-02
R2L_Psi_t[12] 5.0413547020699674e-02
R2L_Psi_t[13] 4.9861128087628041e-02
R2L_Psi_t[14] 4.9710234600388335e-02
R2L_Psi_t[15] 4.9559362617604234e-02
R2L_Psi_t[16] 4.9408516205970344e-02
R2L_Psi_t[17] 4.9997536776814504e-02
R2L_Psi_t[18] 5.0613739864994144e-02
R2L_Psi_t[19] 5.1259175677337204e-02
R2L_Psi_t[20] 5.3146448322146288e-02
R2L_Psi_t[21] 5.5279033999338527e-02
R2L_Psi_t[22] 5.7714079444382407e-02
R2L_Psi_t[23] 6.0529240784590481e-02
R2L_Psi_t[24] 7.3596985006131321e-02
R2L_phi_n[1] 0
R2L_phi_n[2] 2.2581117086075869e+02
R2L_phi_n[3] 4.3827527920267357e+02
R2L_phi_n[4] 1.4662747910521687e+03
R2L_phi_n[5] 2.2899833183236092e+02
R2L_phi_n[6] 9.9337210303102825e+02
R2L_phi_n[7] 1.2016846759951616e+03
R2L_phi_n[8] 1.1441195818109577e+03
R2L_phi_n[9] 1.1108571280579540e+03
R2L_phi_n[10] 1.0980935654580073e+03
R2L_phi_n[11] 1.0856508317669354e+03
R2L_phi_n[12] 5.5160715816673587e+01
R2L_phi_n[13] 1.0616735971963190e+03
R2L_phi_n[14] 1.0542271684104051e+03
R2L_phi_n[15] 1.0510321799277826e+03
R2L_phi_n[16] 1.0478376898654017e+03
R2L_phi_n[17] 1.0524769263955093e+03
R2L_phi_n[18] 1.0652374178767293e+03
R2L_phi_n[19] 1.0785952144333748e+03
R2L_phi_n[20] 1.1054106560735436e+03
R2L_phi_n[21] 522.825649993775
R2L_phi_n[22] 1.1963320257942594e+03
R2L_phi_n[23] 9.1969255325811173e+02
R2L_phi_n[24] 1.1674622603666257e+04
R2L_phi_n[25] 2.3873392036887773e+04
R2L_phi_b[1] 3736.25170492476
R2L_phi_b[2] 1.4927644191250015e+03
R2L_phi_b[3] 1.0554772320888351e+03
R2L_phi_b[4] 0
R2L_phi_b[5] 1.0124113718164863e+03
R2L_phi_b[6] 2.4742408831031597e+02
R2L_phi_b[7] 0
R2L_phi_b[8] 0
R2L_phi_b[9] 0
R2L_phi_b[10] 0
R2L_phi_b[11] 0
R2L_phi_b[12] 9.1651899768190924e+02
R2L_phi_b[13] 0
R2L_phi_b[14] 0
R2L_phi_b[15] 0
R2L_phi_b[16] 0
R2L_phi_b[17] 0
R2L_phi_b[18] 0
R2L_phi_b[19] 0
R2L_phi_b[20] 0
R2L_phi_b[21] 5.6263128877121744e+02
R2L_phi_b[22] 0
R2L_phi_b[23] 2.9900416238288926e+02
R2L_phi_b[24] 0
R2L_phi_b[25] 3.7691491534684246e+02
R2L_w0[1] 2.8659406203147975e+00
R2L_w0[2] 3.2286981659037246e+00
R2L_w0[3] 3.4721258631803043e+00
R2L_w0[4] 3.7165821551819245e+00
R2L_w0[5] 3.9623243833463828e+00
R2L_w0[6] 4.1766949445258552e+00
R2L_w0[7] 4.3925134504555707e+00
R2L_w0[8] 4.60985260741142
R2L_w0[9] 4.66700264714427
R2L_w0[10] 4.7246426170605629e+00
R2L_w0[11] 4.7827771903638325e+00
R2L_w0[12] 4.84141106544218
R2L_w0[13] 4.9005489670459488e+00
R2L_w0[14] 4.9170421097238739e+00
R2L_w0[15] 4.9336819245658212e+00
R2L_w0[16] 4.9504697045212058e+00
R2L_w0[17] 4.8857658504536348e+00
R2L_w0[18] 4.82045065471861
R2L_w0[19] 4.7545168158899358e+00
R2L_w0[20] 4.5751517669109667e+00
R2L_w0[21] 4.3939047315001893e+00
R2L_w0[22] 4.2107183590508219e+00
R2L_w0[23] 4.0255248581806278e+00
R2L_w0[24] 3.4226909632969917e+00
R2L_w0[25] 2.0905450000000005e+00
R2L_wi[1] 3.4593999999997322e+00
R2L_wi[2] 3.4594000000011874e+01
R2L_wi[3] 3.4593999896207137e+01
R2L_wi[4] 3.4594000005795529e+01
R2L_wi[5] 3.4594000004205164e+01
R2L_wi[6] 2.9361641811339133e+01
R2L_wi[7] 2.9361641810877188e+01
R2L_wi[8] 2.9361641810583848e+01
R2L_wi[9] 3.4594000112201755e+00
R2L_wi[10] 3.4594000110421987e+00
R2L_wi[11] 3.4594000108779781e+00
R2L_wi[12] 3.4594000107287357e+00
R2L_wi[13] 3.4594000048732951e+00
R2L_wi[14] -3.4594000151938857e+00
R2L_wi[15] -3.4594000095384487e+00
R2L_wi[16] -3.4594000096658064e+00
R2L_wi[17] -1.6547824136753682e+01
R2L_wi[18] -1.6547824060087798e+01
R2L_wi[19] -1.6547824137487815e+01
R2L_wi[20] -3.4593999971407278e+01
R2L_wi[21] -3.4593999988676096e+01
R2L_wi[22] -3.4593999997174549e+01
R2L_wi[23] -34.5940000000046
R2L_wi[24] -3.4593999999997322e+00
R2L_wi[25] -3.4593999999997322e+00
R2L_wtn[1] 3.1117410159442360e-01
R2L_wtn[2] 0.467653084953614
R2L_wtn[3] 5.7357091900544332e-01
R2L_wtn[4] 6.8045182673333993e-01
R2L_wtn[5] 7.8830198999949985e-01
R2L_wtn[6] 8.8265565384072420e-01
R2L_wtn[7] 9.7786188819714548e-01
R2L_wtn[8] 1.0739272163607199e+00
R2L_wtn[9] 1.0992161716276356e+00
R2L_wtn[10] 1.1247330737078065e+00
R2L_wtn[11] 1.1504799086756188e+00
R2L_wtn[12] 1.1764586809790651e+00
R2L_wtn[13] 1.2026714135626784e+00
R2L_wtn[14] 1.2099838197762491e+00
R2L_wtn[15] 1.2173620634815441e+00
R2L_wtn[16] 1.2248067323579233e+00
R2L_wtn[17] 1.1961178493057962e+00
R2L_wtn[18] 1.1671705771540286e+00
R2L_wtn[19] 1.1379625052031226e+00
R2L_wtn[20] 1.0585775877326058e+00
R2L_wtn[21] 9.7847627096796874e-01
R2L_wtn[22] 8.9765125511133470e-01
R2L_wtn[23] 0.816095033910104
R2L_wtn[24] 0.552015333933643
R2L_wtn[25] 2.9900000000000005e-05
R2L_T 1.4215060110037348e+02
R2L_varpi[0] 60
R2L_varpi[1] 2.4186395451315107e+01
R2L_varpi[2] 2.4520777527389019e+01
R2L_varpi[3] 3.2897580951243640e+01
R2L_varpi[4] 3.2897580888853447e+01
R2L_varpi[5] 4.0932591714171721e+01
R2L_varpi[6] 4.2896274892650354e+01
R2L_varpi[7] 4.2896274892650069e+01
R2L_varpi[8] 4.2896274892649728e+01
R2L_varpi[9] 4.2896274892649728e+01
R2L_varpi[10] 4.2896274892649160e+01
R2L_varpi[11] 4.2896274892649160e+01
R2L_varpi[12] 5.0170235191711932e+01
R2L_varpi[13] 5.0170235191711591e+01
R2L_varpi[14] 5.0170235191711292e+01
R2L_varpi[15] 5.0170235191710994e+01
R2L_varpi[16] 5.0170235191710667e+01
R2L_varpi[17] 5.0170235191710326e+01
R2L_varpi[18] 5.0170235191710326e+01
R2L_varpi[19] 5.0170235191709644e+01
R2L_varpi[20] 50.1702351917093
R2L_varpi[21] 54.6355628803694
R2L_varpi[22] 5.4635562876875589e+01
R2L_varpi[23] 5.7008611782961772e+01
R2L_varpi[24] 5.7008611782961566e+01
R2L_varpi[25] 60
R2L_kappa_plus[0] 0
R2L_kappa_plus[1] 4.9061445235361327e+02
R2L_kappa_plus[2] 4.9447180407586831e+02
R2L_kappa_plus[3] 500
R2L_kappa_plus[4] 2.4721352001716272e+02
R2L_kappa_plus[5] 500
R2L_kappa_plus[6] 500
R2L_kappa_plus[7] 500
R2L_kappa_plus[8] 500
R2L_kappa_plus[9] 500
R2L_kappa_plus[10] 0
R2L_kappa_plus[11] 500
R2L_kappa_plus[12] 500
R2L_kappa_plus[13] 500
R2L_kappa_plus[14] 500
R2L_kappa_plus[15] 500
R2L_kappa_plus[16] 500
R2L_kappa_plus[17] 500
R2L_kappa_plus[18] 500
R2L_kappa_plus[19] 500
R2L_kappa_plus[20] 500
R2L_kappa_plus[21] 500
R2L_kappa_plus[22] 500
R2L_kappa_plus[23] 500
R2L_kappa_plus[24] 500
R2L_kappa_plus[25] 0
R2L_kappa_minus[0] 0
R2L_kappa_minus[1] 4.9061445235361231e+02
R2L_kappa_minus[2] 1.9559345963260319e+02
R2L_kappa_minus[3] 3.0001902175837660e+02
R2L_kappa_minus[4] 500
R2L_kappa_minus[5] 500
R2L_kappa_minus[6] 500
R2L_kappa_minus[7] 500
R2L_kappa_minus[8] 500
R2L_kappa_minus[9] 500
R2L_kappa_minus[10] 500
R2L_kappa_minus[11] 500
R2L_kappa_minus[12] 500
R2L_kappa_minus[13] 500
R2L_kappa_minus[14] 500
R2L_kappa_minus[15] 500
R2L_kappa_minus[16] 500
R2L_kappa_minus[17] 500
R2L_kappa_minus[18] 500
R2L_kappa_minus[19] 2.8066089305447508e+02
R2L_kappa_minus[20] 500
R2L_kappa_minus[21] 500
R2L_kappa_minus[22] 500
R2L_kappa_minus[23] 500
R2L_kappa_minus[24] 500
R2L_kappa_minus[25] 500
R2L_xi[1] 8.2487658779166741e+03
R2L_xi[2] 1.4506322775396886e+03
R2L_xi[3] 6.8315217618719654e-07
R2L_xi[4] 7.86052772572266e-06
R2L_xi[5] 7.8263835476191132e-06
R2L_xi[6] 7.8217550117569753e-06
R2L_xi[7] 0
R2L_xi[8] 0
R2L_xi[9] 0
R2L_xi[10] 0
R2L_xi[11] 0
R2L_xi[12] 0
R2L_xi[13] 0
R2L_xi[14] 0
R2L_xi[15] 0
R2L_xi[16] 0
R2L_xi[17] 0
R2L_xi[18] 0
R2L_xi[19] 0
R2L_xi[20] 0
R2L_xi[21] 0
R2L_xi[22] 4.4017781328875615e-07
R2L_xi[23] 2.1603055938612690e-07
R2L_xi[24] 0
R2L_xi[25] 0
